
Gurobi 10.0.1 (win64) logging started Wed Apr 12 07:35:29 2023

Set parameter LogFile to value "results/log/Fattahi_setup_12.log"
Gurobi Optimizer version 10.0.1 build v10.0.1rc0 (win64)

CPU model: AMD Ryzen 7 3700X 8-Core Processor, instruction set [SSE2|AVX|AVX2]
Thread count: 8 physical cores, 16 logical processors, using up to 16 threads

Optimize a model with 289 rows, 168 columns and 1271 nonzeros
Model fingerprint: 0x56b24f58
Variable types: 40 continuous, 128 integer (128 binary)
Coefficient statistics:
  Matrix range     [1e+00, 1e+09]
  Objective range  [1e+00, 1e+00]
  Bounds range     [1e+00, 1e+00]
  RHS range        [1e+00, 3e+09]
Warning: Model contains large matrix coefficients
Warning: Model contains large rhs
         Consider reformulating model or setting NumericFocus parameter
         to avoid numerical issues.
Presolve removed 46 rows and 7 columns
Presolve time: 0.00s
Presolved: 243 rows, 161 columns, 1366 nonzeros
Variable types: 39 continuous, 122 integer (122 binary)
Found heuristic solution: objective 7900.0000000
Found heuristic solution: objective 6395.9999573
Found heuristic solution: objective 5831.9999488

Root relaxation: objective 3.163000e+03, 41 iterations, 0.00 seconds (0.00 work units)

    Nodes    |    Current Node    |     Objective Bounds      |     Work
 Expl Unexpl |  Obj  Depth IntInf | Incumbent    BestBd   Gap | It/Node Time

     0     0 3163.00005    0   21 5831.99995 3163.00005  45.8%     -    0s
     0     0 3163.00005    0   20 5831.99995 3163.00005  45.8%     -    0s
     0     0 3163.00005    0   20 5831.99995 3163.00005  45.8%     -    0s
H    0     0                    5587.9999830 3213.50559  42.5%     -    0s
     0     0 3213.50559    0   18 5587.99998 3213.50559  42.5%     -    0s
     0     0 3213.50559    0   18 5587.99998 3213.50559  42.5%     -    0s
     0     0 3269.84169    0   16 5587.99998 3269.84169  41.5%     -    0s
H    0     0                    4783.0000000 3269.84169  31.6%     -    0s
H    0     0                    4380.0000000 3269.84169  25.3%     -    0s
     0     0 3270.92194    0   14 4380.00000 3270.92194  25.3%     -    0s
     0     0 3271.42952    0   16 4380.00000 3271.42952  25.3%     -    0s
H    0     0                    4352.0000000 3287.90000  24.5%     -    0s
     0     0 3287.90000    0   14 4352.00000 3287.90000  24.5%     -    0s
H    0     0                    4326.9999770 3287.90000  24.0%     -    0s
     0     0 3287.90000    0   14 4326.99998 3287.90000  24.0%     -    0s
     0     0 3290.90000    0   19 4326.99998 3290.90000  23.9%     -    0s
     0     0 3290.90000    0   19 4326.99998 3290.90000  23.9%     -    0s
     0     0 3293.99118    0   18 4326.99998 3293.99118  23.9%     -    0s
     0     0 3293.99118    0   18 4326.99998 3293.99118  23.9%     -    0s
     0     0 3327.50000    0   15 4326.99998 3327.50000  23.1%     -    0s
     0     0 3331.12121    0   15 4326.99998 3331.12121  23.0%     -    0s
     0     0 3332.22098    0   15 4326.99998 3332.22098  23.0%     -    0s
     0     0 3332.22098    0   15 4326.99998 3332.22098  23.0%     -    0s
     0     0 3339.15628    0   11 4326.99998 3339.15628  22.8%     -    0s
     0     0 3341.39296    0   17 4326.99998 3341.39296  22.8%     -    0s
     0     0 3342.62898    0   18 4326.99998 3342.62898  22.7%     -    0s
     0     0 3344.25610    0   19 4326.99998 3344.25610  22.7%     -    0s
     0     0 3346.14052    0   19 4326.99998 3346.14052  22.7%     -    0s
     0     0 3346.14052    0   19 4326.99998 3346.14052  22.7%     -    0s
     0     0 3348.02495    0   18 4326.99998 3348.02495  22.6%     -    0s
     0     0 3348.02495    0   19 4326.99998 3348.02495  22.6%     -    0s
     0     0 3348.02495    0   19 4326.99998 3348.02495  22.6%     -    0s
     0     2 3348.02495    0   19 4326.99998 3348.02495  22.6%     -    0s
*  424   330              24    4316.9999997 3417.53382  20.8%   3.9    0s
*  731   461              28    4254.0000001 3431.00001  19.3%   3.7    0s
H 1018   536                    4183.9999990 3448.00000  17.6%   3.6    0s
H 2205   876                    4183.9999983 3494.00000  16.5%   3.7    0s
* 2242   872              21    4177.0000000 3494.00000  16.4%   3.7    0s
H 2307   863                    4162.9999992 3494.00000  16.1%   3.7    0s
* 3619  1141              30    4157.9999997 3522.00000  15.3%   3.7    0s
* 3621  1121              30    4143.9999999 3522.00000  15.0%   3.7    0s
H 3640  1119                    4139.0000000 3522.00000  14.9%   3.7    0s
H 5098  1435                    4138.9999992 3549.76001  14.2%   3.8    0s
H 5849  1435                    4138.9999980 3564.60559  13.9%   3.8    0s
H 5995  1377                    4087.0000000 3570.00000  12.6%   3.8    0s

Cutting planes:
  Gomory: 13
  Implied bound: 3
  MIR: 34
  Flow cover: 74
  GUB cover: 1
  Inf proof: 3
  RLT: 1

Explored 15818 nodes (80940 simplex iterations) in 1.32 seconds (0.68 work units)
Thread count was 16 (of 16 available processors)

Solution count 10: 4087 4139 4139 ... 4184

Optimal solution found (tolerance 1.00e-04)
Best objective 4.087000000000e+03, best bound 4.087000000000e+03, gap 0.0000%
Warning: variable name "y[job:0, stage:0, machine:1]" has a space
Warning: constraint name "precedence between 1,0 to 0,0 if x_[j,l,h,z,i]=1" has a space
Warning: to let Gurobi read it back, use rlp format
Warning: variable name "y[job:0, stage:0, machine:1]" has a space
Warning: constraint name "precedence between 1,0 to 0,0 if x_[j,l,h,z,i]=1" has a space
Warning: default variable names used to write mps file
Warning: default constraint names used to write mps file
Warning: variable name "y[job:0, stage:0, machine:1]" has a space
Warning: default variable names used to write solution file
